Reading model...
...model read.
creating competitive generators file...
...competitive generators recorded.
Loading data...
.. real-time data read.
Compiling instance...
...instance created.
Creating Offer Mitigation (model will solve as dispatch if TRUE)...
NOTE: storage offers will not be mitigated
...storage offer mitigation file created
Converting model to MPEC...
...converted
NOTE: initial MIP solve with only storage competitive to get feasible solution
Solving...

Welcome to IBM(R) ILOG(R) CPLEX(R) Interactive Optimizer 12.10.0.0
  with Simplex, Mixed Integer & Barrier Optimizers
5725-A06 5725-A29 5724-Y48 5724-Y49 5724-Y54 5724-Y55 5655-Y21
Copyright IBM Corp. 1988, 2019.  All Rights Reserved.

Type 'help' for a list of available commands.
Type 'help' followed by a command name for more
information on commands.

CPLEX> Logfile 'cplex.log' closed.
Logfile 'C:\Users\wenmi\Desktop\competitiveMPEC\logs\tmpcp2ahzhs.cplex.log' open.
CPLEX> New value for parallel optimization mode: -1
CPLEX> New value for mixed integer optimality gap tolerance: 0.05
CPLEX> New value for deterministic time limit in ticks: 100000
CPLEX> Problem 'C:\Users\wenmi\Desktop\competitiveMPEC\logs\tmpjm88zwep.pyomo.lp' read.
Read time = 0.34 sec. (27.41 ticks)
CPLEX> Problem name         : C:\Users\wenmi\Desktop\competitiveMPEC\logs\tmpjm88zwep.pyomo.lp
Objective sense      : Maximize
Variables            :  107779  [Nneg: 1,  Box: 44054,  Free: 8928,
                                 Binary: 54796]
Objective nonzeros   :   17722
Linear constraints   :  246995  [Less: 82866,  Greater: 118424,  Equal: 45705]
  Nonzeros           :  581029
  RHS nonzeros       :  134791

Variables            : Min LB: -5000.000        Max UB: 1000000.       
Objective nonzeros   : Min   : 0.008333333      Max   : 2500.000       
Linear constraints   :
  Nonzeros           : Min   : 0.008333333      Max   : 1000000.       
  RHS nonzeros       : Min   : 0.008333333      Max   : 1000000.       
CPLEX> Version identifier: 12.10.0.0 | 2019-11-26 | 843d4de2ae
CPXPARAM_Parallel                                -1
CPXPARAM_DetTimeLimit                            100000
CPXPARAM_MIP_Tolerances_MIPGap                   0.050000000000000003
Tried aggregator 3 times.
MIP Presolve eliminated 180661 rows and 40534 columns.
MIP Presolve added 6248 rows and 0 columns.
MIP Presolve modified 49252 coefficients.
Aggregator did 25787 substitutions.
Reduced MIP has 46795 rows, 39979 columns, and 129506 nonzeros.
Reduced MIP has 15724 binaries, 0 generals, 0 SOSs, and 0 indicators.
Presolve time = 0.39 sec. (328.02 ticks)
Probing fixed 740 vars, tightened 7232 bounds.
Probing time = 0.11 sec. (15.04 ticks)
Tried aggregator 2 times.
Detecting symmetries...
MIP Presolve eliminated 1671 rows and 1482 columns.
MIP Presolve modified 5687 coefficients.
Aggregator did 96 substitutions.
Reduced MIP has 45028 rows, 38401 columns, and 124386 nonzeros.
Reduced MIP has 14984 binaries, 0 generals, 0 SOSs, and 0 indicators.
Presolve time = 0.16 sec. (219.65 ticks)
Probing fixed 0 vars, tightened 321 bounds.
Probing time = 0.22 sec. (19.40 ticks)
Clique table members: 82912.
MIP emphasis: balance optimality and feasibility.
MIP search method: dynamic search.
Parallel mode: opportunistic, using up to 16 threads.
Root relaxation solution time = 0.73 sec. (1841.63 ticks)

        Nodes                                         Cuts/
   Node  Left     Objective  IInf  Best Integer    Best Bound    ItCnt     Gap

      0     0       52.3235   250                     52.3235     9947         
      0     0       52.3235   250                    Cuts: 45     9964         
*     0+    0                            0.0000       52.3235              --- 

Cover cuts applied:  1
Implied bound cuts applied:  1
Flow cuts applied:  59
Mixed integer rounding cuts applied:  21
Gomory fractional cuts applied:  11

Root node processing (before b&c):
  Real time             =    2.67 sec. (3460.68 ticks)
Parallel b&c, 16 threads:
  Real time             =    0.00 sec. (0.00 ticks)
  Sync time (average)   =    0.00 sec.
  Wait time (average)   =    0.00 sec.
                          ------------
Total (root+branch&cut) =    2.67 sec. (3460.68 ticks)

Solution pool: 1 solution saved.

MIP - Integer optimal, tolerance (0.05/1e-06):  Objective =  4.8196397984e-09
Current MIP best bound =  4.9028869853e-09 (gap = 8.32472e-11, 0.00%)
Solution time =    2.67 sec.  Iterations = 9980  Nodes = 0 (1)
Deterministic time = 3460.99 ticks  (1295.28 ticks/sec)

CPLEX> Incumbent solution written to file 'C:\Users\wenmi\Desktop\competitiveMPEC\logs\tmpp9a38228.cplex.sol'.
CPLEX> NOTE: no warmstart specified for MIP iteration, default behavior is true
NOTE: resolving with all competitive generators using storage-only solution to warmstart
Solving...

Welcome to IBM(R) ILOG(R) CPLEX(R) Interactive Optimizer 12.10.0.0
  with Simplex, Mixed Integer & Barrier Optimizers
5725-A06 5725-A29 5724-Y48 5724-Y49 5724-Y54 5724-Y55 5655-Y21
Copyright IBM Corp. 1988, 2019.  All Rights Reserved.

Type 'help' for a list of available commands.
Type 'help' followed by a command name for more
information on commands.

CPLEX> Logfile 'cplex.log' closed.
Logfile 'C:\Users\wenmi\Desktop\competitiveMPEC\logs\tmp1c5q6nwp.cplex.log' open.
CPLEX> New value for parallel optimization mode: -1
CPLEX> New value for mixed integer optimality gap tolerance: 0.05
CPLEX> New value for deterministic time limit in ticks: 100000
CPLEX> Problem 'C:\Users\wenmi\Desktop\competitiveMPEC\logs\tmp29rv37jt.pyomo.lp' read.
Read time = 0.39 sec. (27.45 ticks)
CPLEX> MIP start file 'C:\Users\wenmi\Desktop\competitiveMPEC\logs\tmp91a5itk9.cplex.mst' read.
CPLEX> Problem name         : C:\Users\wenmi\Desktop\competitiveMPEC\logs\tmp29rv37jt.pyomo.lp
Objective sense      : Maximize
Variables            :  109219  [Nneg: 1,  Box: 45494,  Free: 8928,
                                 Binary: 54796]
Objective nonzeros   :   19114
Linear constraints   :  246995  [Less: 82866,  Greater: 118424,  Equal: 45705]
  Nonzeros           :  581029
  RHS nonzeros       :  134791

Variables            : Min LB: -5000.000        Max UB: 1000000.       
Objective nonzeros   : Min   : 0.008333333      Max   : 2500.000       
Linear constraints   :
  Nonzeros           : Min   : 0.008333333      Max   : 1000000.       
  RHS nonzeros       : Min   : 0.008333333      Max   : 1000000.       
CPLEX> Version identifier: 12.10.0.0 | 2019-11-26 | 843d4de2ae
CPXPARAM_Parallel                                -1
CPXPARAM_DetTimeLimit                            100000
CPXPARAM_MIP_Tolerances_MIPGap                   0.050000000000000003
1 of 1 MIP starts provided solutions.
MIP start 'm1' defined initial solution with objective 0.0000.
Tried aggregator 3 times.
MIP Presolve eliminated 180661 rows and 41974 columns.
MIP Presolve added 6248 rows and 0 columns.
MIP Presolve modified 49252 coefficients.
Aggregator did 25787 substitutions.
Reduced MIP has 46795 rows, 39979 columns, and 129506 nonzeros.
Reduced MIP has 15724 binaries, 0 generals, 0 SOSs, and 0 indicators.
Presolve time = 0.45 sec. (328.72 ticks)
Probing fixed 740 vars, tightened 7232 bounds.
Probing time = 0.11 sec. (15.04 ticks)
Tried aggregator 2 times.
Detecting symmetries...
MIP Presolve eliminated 1671 rows and 1482 columns.
MIP Presolve modified 5687 coefficients.
Aggregator did 96 substitutions.
Reduced MIP has 45028 rows, 38401 columns, and 124386 nonzeros.
Reduced MIP has 14984 binaries, 0 generals, 0 SOSs, and 0 indicators.
Presolve time = 0.17 sec. (219.66 ticks)
Probing fixed 0 vars, tightened 300 bounds.
Probing time = 0.17 sec. (15.37 ticks)
Clique table members: 82487.
MIP emphasis: balance optimality and feasibility.
MIP search method: dynamic search.
Parallel mode: opportunistic, using up to 16 threads.
Root relaxation solution time = 0.89 sec. (1951.56 ticks)

        Nodes                                         Cuts/
   Node  Left     Objective  IInf  Best Integer    Best Bound    ItCnt     Gap

*     0+    0                            0.0000   1.44400e+07              --- 
      0     0    41849.8209   720        0.0000    41849.8209    12590     --- 
      0     0    41385.6350   720        0.0000     Cuts: 640    13442     --- 
      0     0    40917.0106   720        0.0000     Cuts: 572    14211     --- 
      0     0    40824.7743   720        0.0000     Cuts: 308    14580     --- 
      0     0    40754.3906   720        0.0000     Cuts: 591    15217     --- 
      0     0    40743.2676   720        0.0000     Cuts: 124    15269     --- 
      0     0    40741.0467   720        0.0000      Cuts: 17    15282     --- 
      0     0    40740.9492   720        0.0000       Cuts: 9    15287     --- 
      0     4    40540.5720   498        0.0000    40710.4173    15365     --- 
Elapsed time = 7.78 sec. (6437.86 ticks, tree = 0.02 MB, solutions = 1)
    156    37    40296.5840   412        0.0000    40672.6241    16659     --- 
    306    51    40175.7976   418        0.0000    40672.6241    16866     --- 
    458   156    40105.5167   281        0.0000    40672.6241    19611     --- 
    593   323    33361.6821   322        0.0000    40672.6241    24237     --- 
    712   367    26200.9881   378        0.0000    40672.6241    26366     --- 
    845   470    25796.6897   259        0.0000    40672.6241    34038     --- 
    983   472    24446.0956   289        0.0000    40672.6241    32219     --- 
   1129   538    23262.2427   260        0.0000    40672.6241    41974     --- 
   1272   530    23341.1208   217        0.0000    40672.6241    40827     --- 
   1791  1227    20495.8420   225        0.0000    40672.6241    63654     --- 
Elapsed time = 26.31 sec. (9551.22 ticks, tree = 17.76 MB, solutions = 1)
   2352  1551    21122.9053   136        0.0000    40672.6241    69715     --- 
   2890  1479    21223.6424   170        0.0000    40672.6241    68378     --- 
   3410  2256     3648.2099   107        0.0000    40672.6241    83576     --- 
   3987  2454    13217.4214    79        0.0000    40672.6241    87025     --- 
   4435  2659        cutoff              0.0000    40550.7890   100193     --- 
   4824  2989    21723.2746   340        0.0000    40550.7890   116920     --- 

Performing restart 1

Repeating presolve.
Tried aggregator 3 times.
MIP Presolve eliminated 1523 rows and 1380 columns.
MIP Presolve modified 37329 coefficients.
Aggregator did 409 substitutions.
Reduced MIP has 43096 rows, 36612 columns, and 117792 nonzeros.
Reduced MIP has 14390 binaries, 0 generals, 0 SOSs, and 0 indicators.
Presolve time = 0.16 sec. (135.79 ticks)
Tried aggregator 2 times.
MIP Presolve eliminated 908 rows and 760 columns.
MIP Presolve modified 16549 coefficients.
Aggregator did 3 substitutions.
Reduced MIP has 42185 rows, 35849 columns, and 115209 nonzeros.
Reduced MIP has 14010 binaries, 0 generals, 0 SOSs, and 0 indicators.
Presolve time = 0.09 sec. (75.88 ticks)
Tried aggregator 1 time.
MIP Presolve eliminated 2 rows and 2 columns.
MIP Presolve modified 12932 coefficients.
Reduced MIP has 42183 rows, 35847 columns, and 115203 nonzeros.
Reduced MIP has 14009 binaries, 0 generals, 0 SOSs, and 0 indicators.
Presolve time = 0.16 sec. (117.49 ticks)
Represolve time = 1.28 sec. (540.81 ticks)
   5121     0    23665.5027   763        0.0000    Cuts: 1070   170035     --- 
   5121     0    23613.8495   763        0.0000     Cuts: 507   170337     --- 
   5121     0    23577.9634   763        0.0000     Cuts: 269   170561     --- 
   5121     0    23569.9282   763        0.0000     Cuts: 181   170707     --- 
   5121     0    23565.4557   763        0.0000     Cuts: 118   170821     --- 
   5121     0    23555.6752   763        0.0000     Cuts: 154   170958     --- 
   5121     0    23548.4243   763        0.0000     Cuts: 139   171093     --- 
   5121     0    22683.0446   763        0.0000     Cuts: 161   171273     --- 
   5121     0    22673.3504   763        0.0000     Cuts: 228   171454     --- 
   5121     0    22666.0875   763        0.0000     Cuts: 199   171599     --- 
   5121     0    22647.2724   763        0.0000     Cuts: 186   171782     --- 
   5121     0    22646.0523   763        0.0000     Cuts: 177   171920     --- 
   5121     5        cutoff              0.0000    21832.2905   172244     --- 
   5139    27    12500.1967   553        0.0000    20362.1685   175436     --- 
   5195    24    14841.8051   645        0.0000    19209.1497   174951     --- 
   5254    40    16621.6337   554        0.0000    19209.1497   176493     --- 
Elapsed time = 110.42 sec. (48623.95 ticks, tree = 0.17 MB, solutions = 1)
   5355    43    11920.4451   493        0.0000    19209.1497   176965     --- 
   5502   179     6625.2308   579        0.0000    19209.1497   184129     --- 
   5640    51     3325.7956   625        0.0000    19209.1497   176891     --- 
   5795   109     9130.0857   577        0.0000    19209.1497   181332     --- 
   6012    68     4492.4210   472        0.0000    19209.1497   177789     --- 
   6231   895     3050.5110   281        0.0000    19209.1497   205204     --- 
   6565   514        cutoff              0.0000    19186.2460   194910     --- 
   6945   119        cutoff              0.0000    19186.2460   181867     --- 
   7389  2003     4250.4331   251        0.0000    19186.2460   231361     --- 
   7831   695      159.4078   320        0.0000    19186.2460   198826     --- 
Elapsed time = 174.39 sec. (58229.54 ticks, tree = 12.80 MB, solutions = 1)
   8245  1085     2736.2432   320        0.0000    19186.2460   210470     --- 
   8779   442     4225.8873   442        0.0000    19186.2460   192489     --- 
   9334  2475     3286.0207   416        0.0000    19186.2460   247975     --- 
   9872   733    12348.5576   537        0.0000    16681.3031   200411     --- 
  10430  2759     7210.8797   367        0.0000    16585.6519   255965     --- 
  10914  2315    11516.1389   565        0.0000    16585.6519   242602     --- 
  11470  2980     4145.5143   297        0.0000    16585.6519   260048     --- 
  12006  2214     4567.4749   441        0.0000    14067.2477   238596     --- 
  12547  2106     3026.1977   359        0.0000    14067.2477   234993     --- 
  13099  4255     8059.1522   406        0.0000    14067.2477   297344     --- 
Elapsed time = 236.36 sec. (67791.89 ticks, tree = 67.61 MB, solutions = 1)
  13704  3102     3210.0486   294        0.0000    14030.8721   263963     --- 
  14221  4071     1929.2861   408        0.0000    13158.3624   292600     --- 
  14679  5286     4653.9814   198        0.0000    13158.3624   320200     --- 
  15226  5631     2879.1284   393        0.0000    13158.3624   329036     --- 
  15755  5651     2149.0436   296        0.0000    11528.1362   329388     --- 
  16307  4777     6342.1982   344        0.0000    11528.1362   307272     --- 
  16826  5716        cutoff              0.0000    11528.1362   330752     --- 
  17308  7683      937.5199   301        0.0000    11528.1362   395623     --- 
  17844  8620     1218.0288   258        0.0000    11528.1362   426066     --- 
  18417 10267        cutoff              0.0000    11528.1362   469581     --- 
Elapsed time = 291.72 sec. (77346.64 ticks, tree = 152.56 MB, solutions = 1)
  18936  9864     4271.6420   383        0.0000    11528.1362   461084     --- 
  19468  7651      491.3286   370        0.0000    11528.1362   394718     --- 
  20013  6562      406.5499   227        0.0000    11528.1362   360587     --- 
  20569  7174     7886.6250   515        0.0000    11528.1362   381882     --- 
  21149 12418     5438.8220   375        0.0000    11528.1362   560432     --- 
  21638  9998     3081.0268   431        0.0000    11528.1362   466952     --- 
  22088  8796     7233.0206   441        0.0000    11528.1362   431934     --- 
  22509  8833     2558.1455   204        0.0000    11528.1362   432969     --- 
  22896  9424     4536.5159   510        0.0000    11528.1362   446625     --- 
  23291 10950     2017.5243   424        0.0000    11528.1362   499850     --- 
Elapsed time = 310.66 sec. (86910.92 ticks, tree = 161.89 MB, solutions = 1)
  23613 11287     2186.4572   414        0.0000    11528.1362   510773     --- 
  23927 10989     6981.7463   597        0.0000    11528.1362   502434     --- 
  24187 11871     2896.9420   334        0.0000    11528.1362   535439     --- 
  24449 11394     4704.1458   461        0.0000    11528.1362   513803     --- 
  24690 12026    10385.2673   553        0.0000    11528.1362   545052     --- 
  24962 11439        cutoff              0.0000    11528.1362   516171     --- 
  25176 11687     8790.0221   455        0.0000    11528.1362   526609     --- 
  25338 12098      755.1582   418        0.0000    11528.1362   548924     --- 
  25448 12466     2161.3384   405        0.0000    11528.1362   561302     --- 
  25527 12434     3457.0517   462        0.0000    11528.1362   559700     --- 
Elapsed time = 310.73 sec. (96514.57 ticks, tree = 182.11 MB, solutions = 1)
  25605 12460     2685.7116   458        0.0000    11528.1362   561137     --- 
  25671 12751     1183.8147   452        0.0000    11528.1362   576175     --- 
  25752 12668     4282.3007   475        0.0000    11528.1362   572820     --- 

GUB cover cuts applied:  11
Clique cuts applied:  44
Cover cuts applied:  135
Implied bound cuts applied:  99
Flow cuts applied:  719
Mixed integer rounding cuts applied:  98
Lift and project cuts applied:  33
Gomory fractional cuts applied:  24

Root node processing (before b&c):
  Real time             =    6.03 sec. (6296.83 ticks)
Parallel b&c, 16 threads:
  Real time             =  304.86 sec. (93718.05 ticks)
  Sync time (average)   =    9.59 sec.
  Wait time (average)   =    0.09 sec.
                          ------------
Total (root+branch&cut) =  310.89 sec. (100014.88 ticks)

Solution pool: 1 solution saved.

MIP - Deterministic time limit exceeded, integer feasible:  Objective =  2.3101165425e-10
Current MIP best bound =  1.0737001931e+04 (gap = 10737, 3.2e+15%)
Solution time =  310.89 sec.  Iterations = 738003  Nodes = 25762 (16318)
Deterministic time = 100015.20 ticks  (321.71 ticks/sec)

CPLEX> Incumbent solution written to file 'C:\Users\wenmi\Desktop\competitiveMPEC\logs\tmpjntsu_f1.cplex.sol'.
CPLEX> Exporting results... 
